5 5
0 66 1 30 3 53 2 34 4 22
1 67 4 6 0 79 3 27 2 10
2 73 0 97 4 96 1 48 3 70
1 59 2 59 0 2 3 29 4 68
1 65 0 83 2 26 3 89 4 10
-1
0 2 5
0 3 5
0 1 2 5
0 2 3 4 5
0 1 2 4 5
-2
151 254
219 213
91 179 556
178 178 194 274
74 211 277 305

460 8
0 21 11 17 7
20 1 15 5 13
10 22 3 16 9
2 23 18 8 14
4 6 12 19 24
